(set-option :produce-models true)
(set-logic QF_UF)
(declare-fun p20() Bool)
(declare-fun p24() Bool)
(declare-fun p8() Bool)
(declare-fun p29() Bool)
(declare-fun p27() Bool)
(declare-fun p0() Bool)
(declare-fun p21() Bool)
(declare-fun p9() Bool)
(declare-fun p5() Bool)
(declare-fun p26() Bool)
(declare-fun p13() Bool)
(declare-fun p11() Bool)
(declare-fun p28() Bool)
(declare-fun p6() Bool)
(declare-fun p22() Bool)
(declare-fun p1() Bool)
(declare-fun p18() Bool)
(declare-fun p14() Bool)
(declare-fun p19() Bool)
(declare-fun p4() Bool)
(declare-fun p23() Bool)
(declare-fun p12() Bool)
(declare-fun p10() Bool)
(declare-fun p3() Bool)
(declare-fun p7() Bool)
(declare-fun p16() Bool)
(declare-fun p2() Bool)
(declare-fun p25() Bool)
(declare-fun p17() Bool)
(declare-fun p15() Bool)
(assert
(and (or (not p20) (not p20) p24) (or p8 (not p29) p27) (or p0 (not p21) p9) (or p5 p29 (not p26)) (or p13 (not p11) p26) (or p28 p6 p22) (or p1 p11 p22) (or p18 (not p18) p0) (or p28 p14 (not p18)) (or p14 (not p8) p24) (or p22 p26 (not p19)) (or p4 (not p23) p18) (or p11 p8 p23) (or (not p27) p20 p8) (or p8 p12 (not p21)) (or p27 (not p1) (not p27)) (or p12 p28 p9) (or (not p24) p11 p14) (or p10 (not p29) (not p24)) (or (not p11) p18 p26) (or p3 (not p18) (not p19)) (or p7 p20 (not p22)) (or (not p6) (not p18) (not p23)) (or (not p27) (not p21) p24) (or p4 p16 p2) (or (not p25) p29 (not p20)) (or p24 p22 p2) (or (not p18) (not p18) (not p1)) (or p2 (not p28) p23) (or (not p26) p17 p25) (or p11 p24 (not p5)) (or p2 p1 p24) (or (not p19) (not p19) p17) (or p19 (not p13) p7) (or (not p21) (not p10) p19) (or p19 p24 p11) (or (not p22) (not p24) p22) (or (not p3) (not p25) p4) (or p24 p16 (not p20)) (or (not p20) (not p16) p27) (or (not p26) (not p5) (not p17)) (or p4 p9 (not p11)) (or p19 p25 p6) (or (not p26) (not p13) p24) (or (not p1) p2 (not p12)) (or (not p15) p18 p22) (or (not p12) p29 (not p20)) (or (not p1) p12 (not p8)) (or (not p26) (not p2) (not p25)) (or p26 (not p26) p22) (or p16 (not p9) (not p7)) (or p21 p18 (not p3)) (or (not p10) p23 p8) (or p10 p26 (not p9)) (or p22 (not p20) (not p21)) (or (not p1) (not p18) (not p17)) (or p2 (not p14) p21) (or p11 (not p22) (not p13)) (or (not p8) p17 p2) (or p22 (not p25) p28) (or p21 p10 (not p25)) (or p4 (not p21) p26) (or p22 p1 (not p20)) (or (not p26) p8 (not p20)) (or (not p0) p6 p16) (or (not p13) (not p1) (not p5)) (or (not p20) (not p21) p18) (or (not p19) p6 (not p0)) (or (not p6) p25 (not p4)) (or p16 p7 p16) (or p13 (not p28) (not p19)) (or p21 p14 p29) (or p2 (not p29) (not p29)) (or p23 p16 p1) (or (not p19) (not p26) p10) (or p4 (not p3) p24) (or p29 p24 p22) (or (not p29) (not p0) (not p9)) (or (not p6) p12 p15) (or p2 (not p22) p26) (or p9 (not p16) (not p9)) (or p25 (not p24) (not p5)) (or p6 p4 (not p26)) (or p11 (not p7) (not p21)) (or (not p16) p28 (not p15)) (or (not p16) p28 (not p12)) (or (not p10) p10 (not p16)) (or p24 p25 p5) (or (not p2) (not p14) (not p7)) (or (not p22) (not p29) p21) (or (not p13) (not p16) p26) (or (not p15) p9 (not p26)) (or p13 (not p29) p24) (or (not p1) p1 (not p11)) (or (not p11) p14 p7) (or (not p5) p25 (not p18)) (or p27 p11 (not p25)) (or (not p24) p0 (not p27)) (or p7 p27 p17) (or (not p19) (not p24) (not p26)) (or p3 p12 (not p1)) (or (not p25) p6 (not p18)) (or (not p27) p20 (not p11)) (or p9 p3 p6) (or (not p10) p9 (not p19)) (or (not p27) (not p26) p14) (or (not p20) p23 (not p4)) (or p4 (not p19) p11) (or p24 (not p0) (not p19)) (or (not p28) (not p26) p20) (or (not p19) p4 (not p19)) (or (not p0) (not p25) p5) (or p27 (not p26) (not p11)) (or (not p24) (not p17) (not p23)) (or (not p20) p26 (not p26)) (or p13 (not p0) (not p19)) (or (not p9) (not p8) p7) (or p3 p12 p14) (or (not p26) (not p26) (not p7)) (or (not p19) p16 (not p29)) (or p19 (not p23) (not p5)) (or p20 p19 (not p24)) (or (not p26) (not p19) (not p19)) (or p9 (not p21) (not p25)) (or p16 (not p23) (not p29)) (or (not p22) p20 p5) (or p17 (not p9) p19) (or p12 p14 p23))
)
(check-sat)
(get-model)
